50
237 104 397 155 67 402 918 801 766 222 537 277 173 107 215 928 829 807 801 194 310 627 732 855 881 87 606 672 506 178 474 90 935 866 548 301 909 573 883 849 509 414 599 432 162 306 813 44 47 627 
337 204 497 255 167 502 1018 901 866 322 637 377 273 207 315 1028 929 907 901 294 410 727 832 955 981 187 706 772 606 278 574 190 1035 966 648 401 1009 673 983 949 609 514 699 532 262 406 913 144 147 727 
12263
